(declare-fun var0 () String)
(assert (RegexIn var0 (RegexConcat (RegexUnion (RegexStar (RegexStar (RegexUnion (RegexPlus (RegexPlus (RegexPlus (Str2Reg "2")))) (RegexPlus (RegexPlus (RegexPlus (Str2Reg "333"))))))) (RegexUnion (RegexPlus (RegexStar (RegexUnion (RegexUnion (RegexUnion (Str2Reg "4") (Str2Reg "5")) (RegexPlus (Str2Reg "666"))) (RegexUnion (RegexPlus (Str2Reg "777")) (RegexUnion (Str2Reg "8") (Str2Reg "99")))))) (RegexPlus (RegexUnion (RegexStar (RegexStar (RegexStar (Str2Reg "aaa")))) (RegexPlus (RegexStar (RegexPlus (Str2Reg "b")))))))) (RegexPlus (RegexPlus (RegexStar (RegexPlus (RegexStar (RegexStar (RegexUnion (Str2Reg "0") (Str2Reg "111")))))))))))
(assert (<= 15 (Length var0)))
(check-sat)